* Problem:    Caixeiro viajante com deadline
* Class:      MIP
* Rows:       237
* Columns:    255 (225 integer, 225 binary)
* Non-zeros:  954
* Format:     Free MPS
*
NAME Caixeiro_viajante_com_deadline
ROWS
 N R0000000
 E R1
 E R2
 E R3
 E R4
 E R5
 E R6
 E R7
 E R8
 E R9
 E R10
 E R11
 E R12
 E R13
 E R14
 E R15
 E R16
 E R17
 E R18
 E R19
 E R20
 E R21
 E R22
 E R23
 E R24
 E R25
 E R26
 E R27
 E R28
 G R29
 G R30
 G R31
 G R32
 G R33
 G R34
 G R35
 G R36
 G R37
 G R38
 G R39
 G R40
 G R41
 G R42
 G R43
 G R44
 G R45
 G R46
 G R47
 G R48
 G R49
 G R50
 G R51
 G R52
 G R53
 G R54
 G R55
 G R56
 G R57
 G R58
 G R59
 G R60
 G R61
 G R62
 G R63
 G R64
 G R65
 G R66
 G R67
 G R68
 G R69
 G R70
 G R71
 G R72
 G R73
 G R74
 G R75
 G R76
 G R77
 G R78
 G R79
 G R80
 G R81
 G R82
 G R83
 G R84
 G R85
 G R86
 G R87
 G R88
 G R89
 G R90
 G R91
 G R92
 G R93
 G R94
 G R95
 G R96
 G R97
 G R98
 G R99
 G R100
 G R101
 G R102
 G R103
 G R104
 G R105
 G R106
 G R107
 G R108
 G R109
 G R110
 G R111
 G R112
 G R113
 G R114
 G R115
 G R116
 G R117
 G R118
 G R119
 G R120
 G R121
 G R122
 G R123
 G R124
 G R125
 G R126
 G R127
 G R128
 G R129
 G R130
 G R131
 G R132
 G R133
 G R134
 G R135
 G R136
 G R137
 G R138
 G R139
 G R140
 G R141
 G R142
 G R143
 G R144
 G R145
 G R146
 G R147
 G R148
 G R149
 G R150
 G R151
 G R152
 G R153
 G R154
 G R155
 G R156
 G R157
 G R158
 G R159
 G R160
 G R161
 G R162
 G R163
 G R164
 G R165
 G R166
 G R167
 G R168
 G R169
 G R170
 G R171
 G R172
 G R173
 G R174
 G R175
 G R176
 G R177
 G R178
 G R179
 G R180
 G R181
 G R182
 G R183
 G R184
 G R185
 G R186
 G R187
 G R188
 G R189
 G R190
 G R191
 G R192
 G R193
 G R194
 G R195
 G R196
 G R197
 G R198
 G R199
 G R200
 G R201
 G R202
 G R203
 G R204
 G R205
 G R206
 G R207
 G R208
 G R209
 G R210
 G R211
 G R212
 G R213
 G R214
 G R215
 G R216
 G R217
 G R218
 G R219
 G R220
 G R221
 G R222
 G R223
 G R224
 G R225
 G R226
 G R227
 G R228
 G R229
 G R230
 G R231
 G R232
 G R233
 G R234
 G R235
 G R236
 G R237
COLUMNS
 M0000001 'MARKER' 'INTORG'
 x[0,0] R1 0 $ empty column
 x[0,1] R1 1 R29 -7630.118742
 x[0,1] R15 1
 x[0,2] R1 1 R16 1
 x[0,2] R30 -7601.862885
 x[0,3] R1 1 R17 1
 x[0,3] R31 -7560.575307
 x[0,4] R1 1 R32 -7557
 x[0,4] R18 1
 x[0,5] R1 1 R33 -7602.552702
 x[0,5] R19 1
 x[0,6] R1 1 R34 -7602.878278
 x[0,6] R20 1
 x[0,7] R1 1 R21 1
 x[0,7] R35 -7582.935146
 x[0,8] R22 1 R36 -7565.674242
 x[0,8] R1 1
 x[0,9] R23 1 R37 -7585.142675
 x[0,9] R1 1
 x[0,10] R24 1 R38 -7590.717096
 x[0,10] R1 1
 x[0,11] R25 1 R39 -7623.493386
 x[0,11] R1 1
 x[0,12] R26 1 R40 -7613.958814
 x[0,12] R1 1
 x[0,13] R27 1 R41 -7539.440307
 x[0,13] R1 1
 x[0,14] R42 -7529 R1 1
 x[0,14] R28 1
 x[1,0] R1 0 $ empty column
 x[1,1] R43 -7540
 x[1,2] R16 1 R2 1
 x[1,2] R44 -7579.319207
 x[1,3] R17 1 R2 1
 x[1,3] R45 -7611.610055
 x[1,4] R18 1 R2 1
 x[1,4] R46 -7631.219515
 x[1,5] R19 1 R2 1
 x[1,5] R47 -7578.327536
 x[1,6] R20 1 R2 1
 x[1,6] R48 -7572.015621
 x[1,7] R21 1 R2 1
 x[1,7] R49 -7608.264193
 x[1,8] R22 1 R50 -7607.007462
 x[1,8] R2 1
 x[1,9] R23 1 R51 -7601.587336
 x[1,9] R2 1
 x[1,10] R24 1 R52 -7601.400326
 x[1,10] R2 1
 x[1,11] R25 1 R53 -7578.288379
 x[1,11] R2 1
 x[1,12] R26 1 R54 -7575.341194
 x[1,12] R2 1
 x[1,13] R27 1 R55 -7634.031909
 x[1,13] R2 1
 x[1,14] R56 -7641.118742 R2 1
 x[1,14] R28 1
 x[2,0] R1 0 $ empty column
 x[2,1] R57 -7584.319207 R3 1
 x[2,1] R15 1
 x[2,2] R58 -7545
 x[2,3] R59 -7595.695167 R17 1
 x[2,3] R3 1
 x[2,4] R60 -7600.901699 R18 1
 x[2,4] R3 1
 x[2,5] R61 -7546 R19 1
 x[2,5] R3 1
 x[2,6] R62 -7554.219544 R20 1
 x[2,6] R3 1
 x[2,7] R63 -7608.071388 R21 1
 x[2,7] R3 1
 x[2,8] R64 -7593.083261 R22 1
 x[2,8] R3 1
 x[2,9] R65 -7602.31492 R23 1
 x[2,9] R3 1
 x[2,10] R66 -7567.090722 R24 1
 x[2,10] R3 1
 x[2,11] R67 -7567.36068 R25 1
 x[2,11] R3 1
 x[2,12] R26 1 R3 1
 x[2,12] R68 -7557.206556
 x[2,13] R27 1 R3 1
 x[2,13] R69 -7613.818602
 x[2,14] R3 1 R28 1
 x[2,14] R70 -7617.862885
 x[3,0] R1 0 $ empty column
 x[3,1] R4 1 R15 1
 x[3,1] R71 -7620.610055
 x[3,2] R4 1 R16 1
 x[3,2] R72 -7599.695167
 x[3,3] R73 -7549
 x[3,4] R18 1 R4 1
 x[3,4] R74 -7587.013156
 x[3,5] R19 1 R4 1
 x[3,5] R75 -7600.078371
 x[3,6] R20 1 R76 -7597.548944
 x[3,6] R4 1
 x[3,7] R21 1 R77 -7576.202941
 x[3,7] R4 1
 x[3,8] R22 1 R78 -7554.09902
 x[3,8] R4 1
 x[3,9] R23 1 R79 -7575.925824
 x[3,9] R4 1
 x[3,10] R24 1 R80 -7598.091751
 x[3,10] R4 1
 x[3,11] R25 1 R81 -7622.006849
 x[3,11] R4 1
 x[3,12] R26 1 R82 -7611.64982
 x[3,12] R4 1
 x[3,13] R27 1 R83 -7571.847319
 x[3,13] R4 1
 x[3,14] R84 -7580.575307 R4 1
 x[3,14] R28 1
 x[4,0] R1 0 $ empty column
 x[4,1] R85 -7637.219515 R5 1
 x[4,1] R15 1
 x[4,2] R86 -7601.901699 R5 1
 x[4,2] R16 1
 x[4,3] R87 -7584.013156 R5 1
 x[4,3] R17 1
 x[4,4] R88 -7546
 x[4,5] R89 -7602.797887 R19 1
 x[4,5] R5 1
 x[4,6] R90 -7606.083276 R20 1
 x[4,6] R5 1
 x[4,7] R91 -7611.215029 R21 1
 x[4,7] R5 1
 x[4,8] R22 1 R5 1
 x[4,8] R92 -7587.677332
 x[4,9] R23 1 R5 1
 x[4,9] R93 -7610.498062
 x[4,10] R24 1 R5 1
 x[4,10] R94 -7584.897301
 x[4,11] R25 1 R5 1
 x[4,11] R95 -7621
 x[4,12] R26 1 R5 1
 x[4,12] R96 -7612.887966
 x[4,13] R27 1 R5 1
 x[4,13] R97 -7578.572995
 x[4,14] R5 1 R98 -7574
 x[4,14] R28 1
 x[5,0] R1 0 $ empty column
 x[5,1] R6 1 R99 -7585.327536
 x[5,1] R15 1
 x[5,2] R6 1 R100 -7548
 x[5,2] R16 1
 x[5,3] R6 1 R101 -7598.078371
 x[5,3] R17 1
 x[5,4] R6 1 R102 -7603.797887
 x[5,4] R18 1
 x[5,5] R103 -7547
 x[5,6] R20 1 R104 -7555.485281
 x[5,6] R6 1
 x[5,7] R21 1 R105 -7610.031738
 x[5,7] R6 1
 x[5,8] R22 1 R106 -7595.383882
 x[5,8] R6 1
 x[5,9] R23 1 R107 -7604.218878
 x[5,9] R6 1
 x[5,10] R24 1 R108 -7570.086793
 x[5,10] R6 1
 x[5,11] R25 1 R109 -7568.931712
 x[5,11] R6 1
 x[5,12] R26 1 R110 -7558.661904
 x[5,12] R6 1
 x[5,13] R27 1 R111 -7616.404611
 x[5,13] R6 1
 x[5,14] R112 -7620.552702 R6 1
 x[5,14] R28 1
 x[6,0] R1 0 $ empty column
 x[6,1] R113 -7578.015621 R7 1
 x[6,1] R15 1
 x[6,2] R114 -7555.219544 R7 1
 x[6,2] R16 1
 x[6,3] R115 -7594.548944 R7 1
 x[6,3] R17 1
 x[6,4] R7 1 R18 1
 x[6,4] R116 -7606.083276
 x[6,5] R7 1 R19 1
 x[6,5] R117 -7554.485281
 x[6,6] R118 -7546
 x[6,7] R7 1 R21 1
 x[6,7] R119 -7603.140179
 x[6,8] R7 1 R22 1
 x[6,8] R120 -7591.177428
 x[6,9] R23 1 R7 1
 x[6,9] R121 -7597.009803
 x[6,10] R24 1 R7 1
 x[6,10] R122 -7576.083218
 x[6,11] R25 1 R7 1
 x[6,11] R123 -7572.172505
 x[6,12] R26 1 R7 1
 x[6,12] R124 -7562
 x[6,13] R27 1 R7 1
 x[6,13] R125 -7614.622154
 x[6,14] R7 1 R126 -7619.878278
 x[6,14] R28 1
 x[7,0] R1 0 $ empty column
 x[7,1] R8 1 R127 -7604.264193
 x[7,1] R15 1
 x[7,2] R8 1 R128 -7599.071388
 x[7,2] R16 1
 x[7,3] R8 1 R129 -7563.202941
 x[7,3] R17 1
 x[7,4] R8 1 R130 -7601.215029
 x[7,4] R18 1
 x[7,5] R8 1 R131 -7599.031738
 x[7,5] R19 1
 x[7,6] R8 1 R132 -7593.140179
 x[7,6] R20 1
 x[7,7] R133 -7536
 x[7,8] R134 -7560.041631 R8 1
 x[7,8] R22 1
 x[7,9] R135 -7542.708204 R23 1
 x[7,9] R8 1
 x[7,10] R24 1 R136 -7605.641941
 x[7,10] R8 1
 x[7,11] R25 1 R137 -7619.294658
 x[7,11] R8 1
 x[7,12] R26 1 R138 -7609.109507
 x[7,12] R8 1
 x[7,13] R27 1 R139 -7579.566042
 x[7,13] R8 1
 x[7,14] R8 1 R28 1
 x[7,14] R140 -7589.935146
 x[8,0] R1 0 $ empty column
 x[8,1] R9 1 R15 1
 x[8,1] R141 -7602.007462
 x[8,2] R9 1 R16 1
 x[8,2] R142 -7583.083261
 x[8,3] R9 1 R17 1
 x[8,3] R143 -7540.09902
 x[8,4] R9 1 R18 1
 x[8,4] R144 -7576.677332
 x[8,5] R9 1 R19 1
 x[8,5] R145 -7583.383882
 x[8,6] R9 1 R20 1
 x[8,6] R146 -7580.177428
 x[8,7] R9 1 R21 1
 x[8,7] R147 -7559.041631
 x[8,8] R148 -7535
 x[8,9] R23 1 R9 1
 x[8,9] R149 -7557.825424
 x[8,10] R24 1 R9 1
 x[8,10] R150 -7583.6621
 x[8,11] R25 1 R9 1
 x[8,11] R151 -7605.228199
 x[8,12] R26 1 R9 1
 x[8,12] R152 -7594.808026
 x[8,13] R27 1 R9 1
 x[8,13] R153 -7562.856777
 x[8,14] R9 1 R154 -7571.674242
 x[8,14] R28 1
 x[9,0] R1 0 $ empty column
 x[9,1] R10 1 R155 -7609.587336
 x[9,1] R15 1
 x[9,2] R10 1 R156 -7605.31492
 x[9,2] R16 1
 x[9,3] R10 1 R157 -7574.925824
 x[9,3] R17 1
 x[9,4] R10 1 R158 -7612.498062
 x[9,4] R18 1
 x[9,5] R10 1 R159 -7605.218878
 x[9,5] R19 1
 x[9,6] R10 1 R160 -7599.009803
 x[9,6] R20 1
 x[9,7] R10 1 R161 -7554.708204
 x[9,7] R21 1
 x[9,8] R10 1 R162 -7570.825424
 x[9,8] R22 1
 x[9,9] R163 -7548
 x[9,10] R10 1 R164 -7613.306967
 x[9,10] R24 1
 x[9,11] R165 -7625.103826 R10 1
 x[9,11] R25 1
 x[9,12] R166 -7615.007462 R10 1
 x[9,12] R26 1
 x[9,13] R167 -7594.010868 R27 1
 x[9,13] R10 1
 x[9,14] R168 -7604.142675 R10 1
 x[9,14] R28 1
 x[10,0] R1 0 $ empty column
 x[10,1] R169 -7606.400326 R11 1
 x[10,1] R15 1
 x[10,2] R11 1 R16 1
 x[10,2] R170 -7567.090722
 x[10,3] R11 1 R17 1
 x[10,3] R171 -7594.091751
 x[10,4] R11 1 R18 1
 x[10,4] R172 -7583.897301
 x[10,5] R11 1 R19 1
 x[10,5] R173 -7568.086793
 x[10,6] R11 1 R20 1
 x[10,6] R174 -7575.083218
 x[10,7] R11 1 R21 1
 x[10,7] R175 -7614.641941
 x[10,8] R11 1 R22 1
 x[10,8] R176 -7593.6621
 x[10,9] R11 1 R23 1
 x[10,9] R177 -7610.306967
 x[10,10] R178 -7545
 x[10,11] R11 1 R25 1
 x[10,11] R179 -7581.71512
 x[10,12] R11 1 R26 1
 x[10,12] R180 -7575.083218
 x[10,13] R11 1 R27 1
 x[10,13] R181 -7605.728906
 x[10,14] R11 1 R182 -7606.717096
 x[10,14] R28 1
 x[11,0] R1 0 $ empty column
 x[11,1] R12 1 R183 -7577.288379
 x[11,1] R15 1
 x[11,2] R12 1 R184 -7561.36068
 x[11,2] R16 1
 x[11,3] R12 1 R185 -7612.006849
 x[11,3] R17 1
 x[11,4] R12 1 R186 -7614
 x[11,4] R18 1
 x[11,5] R12 1 R187 -7560.931712
 x[11,5] R19 1
 x[11,6] R12 1 R188 -7565.172505
 x[11,6] R20 1
 x[11,7] R12 1 R189 -7622.294658
 x[11,7] R21 1
 x[11,8] R12 1 R190 -7609.228199
 x[11,8] R22 1
 x[11,9] R12 1 R191 -7616.103826
 x[11,9] R23 1
 x[11,10] R12 1 R192 -7575.71512
 x[11,10] R24 1
 x[11,11] R193 -7539
 x[11,12] R12 1 R26 1
 x[11,12] R194 -7549.440307
 x[11,13] R12 1 R27 1
 x[11,13] R195 -7629.972523
 x[11,14] R12 1 R196 -7633.493386
 x[11,14] R28 1
 x[12,0] R1 0 $ empty column
 x[12,1] R197 -7580.341194 R15 1
 x[12,1] R13 1
 x[12,2] R16 1 R198 -7557.206556
 x[12,2] R13 1
 x[12,3] R17 1 R199 -7607.64982
 x[12,3] R13 1
 x[12,4] R200 -7611.887966 R18 1
 x[12,4] R13 1
 x[12,5] R19 1 R201 -7556.661904
 x[12,5] R13 1
 x[12,6] R20 1 R202 -7561
 x[12,6] R13 1
 x[12,7] R21 1 R203 -7618.109507
 x[12,7] R13 1
 x[12,8] R22 1 R204 -7604.808026
 x[12,8] R13 1
 x[12,9] R23 1 R205 -7612.007462
 x[12,9] R13 1
 x[12,10] R24 1 R206 -7575.083218
 x[12,10] R13 1
 x[12,11] R25 1 R207 -7555.440307
 x[12,11] R13 1
 x[12,12] R208 -7545
 x[12,13] R27 1 R209 -7626.024688
 x[12,13] R13 1
 x[12,14] R210 -7629.958814 R28 1
 x[12,14] R13 1
 x[13,0] R1 0 $ empty column
 x[13,1] R211 -7637.031909 R15 1
 x[13,1] R14 1
 x[13,2] R16 1 R14 1
 x[13,2] R212 -7611.818602
 x[13,3] R17 1 R14 1
 x[13,3] R213 -7565.847319
 x[13,4] R18 1 R214 -7575.572995
 x[13,4] R14 1
 x[13,5] R19 1 R215 -7612.404611
 x[13,5] R14 1
 x[13,6] R20 1 R216 -7611.622154
 x[13,6] R14 1
 x[13,7] R21 1 R217 -7586.566042
 x[13,7] R14 1
 x[13,8] R22 1 R218 -7570.856777
 x[13,8] R14 1
 x[13,9] R23 1 R219 -7589.010868
 x[13,9] R14 1
 x[13,10] R24 1 R220 -7603.728906
 x[13,10] R14 1
 x[13,11] R25 1 R221 -7633.972523
 x[13,11] R14 1
 x[13,12] R26 1 R222 -7624.024688
 x[13,12] R14 1
 x[13,13] R223 -7543
 x[13,14] R224 -7553.440307 R28 1
 x[13,14] R14 1
 x[14,0] R1 0 $ empty column
 x[14,1] R1 0 $ empty column
 x[14,2] R1 0 $ empty column
 x[14,3] R1 0 $ empty column
 x[14,4] R1 0 $ empty column
 x[14,5] R1 0 $ empty column
 x[14,6] R1 0 $ empty column
 x[14,7] R1 0 $ empty column
 x[14,8] R1 0 $ empty column
 x[14,9] R1 0 $ empty column
 x[14,10] R1 0 $ empty column
 x[14,11] R1 0 $ empty column
 x[14,12] R1 0 $ empty column
 x[14,13] R1 0 $ empty column
 x[14,14] R1 0 $ empty column
 M0000002 'MARKER' 'INTEND'
 phi[0] R42 -1 R41 -1
 phi[0] R40 -1 R39 -1
 phi[0] R38 -1 R37 -1
 phi[0] R36 -1 R35 -1
 phi[0] R34 -1 R33 -1
 phi[0] R32 -1 R31 -1
 phi[0] R30 -1 R29 -1
 phi[1] R169 1 R211 1
 phi[1] R183 1 R113 1
 phi[1] R57 1 R56 -1
 phi[1] R85 1 R225 -1
 phi[1] R55 -1 R54 -1
 phi[1] R155 1 R53 -1
 phi[1] R52 -1 R51 -1
 phi[1] R50 -1 R127 1
 phi[1] R99 1 R197 1
 phi[1] R29 1 R49 -1
 phi[1] R48 -1 R71 1
 phi[1] R47 -1 R46 -1
 phi[1] R141 1 R45 -1
 phi[1] R44 -1
 phi[2] R67 -1 R66 -1
 phi[2] R65 -1 R184 1
 phi[2] R64 -1 R63 -1
 phi[2] R86 1 R62 -1
 phi[2] R61 -1 R114 1
 phi[2] R60 -1 R59 -1
 phi[2] R57 -1 R226 -1
 phi[2] R128 1 R156 1
 phi[2] R100 1 R198 1
 phi[2] R30 1 R170 1
 phi[2] R72 1 R142 1
 phi[2] R70 -1 R69 -1
 phi[2] R212 1 R68 -1
 phi[2] R44 1
 phi[3] R185 1 R87 1
 phi[3] R115 1 R59 1
 phi[3] R84 -1 R83 -1
 phi[3] R82 -1 R227 -1
 phi[3] R129 1 R81 -1
 phi[3] R80 -1 R157 1
 phi[3] R79 -1 R78 -1
 phi[3] R101 1 R77 -1
 phi[3] R76 -1 R75 -1
 phi[3] R74 -1 R199 1
 phi[3] R31 1 R171 1
 phi[3] R72 -1 R143 1
 phi[3] R71 -1 R213 1
 phi[3] R45 1
 phi[4] R91 -1 R186 1
 phi[4] R90 -1 R89 -1
 phi[4] R87 -1 R86 -1
 phi[4] R60 1 R158 1
 phi[4] R85 -1 R130 1
 phi[4] R228 -1 R32 1
 phi[4] R200 1 R102 1
 phi[4] R98 -1 R74 1
 phi[4] R172 1 R97 -1
 phi[4] R144 1 R96 -1
 phi[4] R95 -1 R214 1
 phi[4] R94 -1 R46 1
 phi[4] R93 -1 R116 1
 phi[4] R92 -1
 phi[5] R187 1 R89 1
 phi[5] R61 1 R112 -1
 phi[5] R159 1 R111 -1
 phi[5] R110 -1 R131 1
 phi[5] R229 -1 R33 1
 phi[5] R109 -1 R108 -1
 phi[5] R107 -1 R106 -1
 phi[5] R201 1 R105 -1
 phi[5] R104 -1 R102 -1
 phi[5] R101 -1 R100 -1
 phi[5] R99 -1 R75 1
 phi[5] R173 1 R145 1
 phi[5] R215 1 R47 1
 phi[5] R117 1
 phi[6] R188 1 R90 1
 phi[6] R62 1 R115 -1
 phi[6] R114 -1 R113 -1
 phi[6] R160 1 R132 1
 phi[6] R230 -1 R34 1
 phi[6] R202 1 R104 1
 phi[6] R126 -1 R125 -1
 phi[6] R124 -1 R76 1
 phi[6] R123 -1 R122 -1
 phi[6] R174 1 R146 1
 phi[6] R121 -1 R216 1
 phi[6] R120 -1 R48 1
 phi[6] R119 -1 R117 -1
 phi[6] R116 -1
 phi[7] R189 1 R139 -1
 phi[7] R91 1 R138 -1
 phi[7] R137 -1 R136 -1
 phi[7] R135 -1 R63 1
 phi[7] R134 -1 R161 1
 phi[7] R132 -1 R231 -1
 phi[7] R131 -1 R35 1
 phi[7] R130 -1 R129 -1
 phi[7] R128 -1 R203 1
 phi[7] R105 1 R127 -1
 phi[7] R77 1 R175 1
 phi[7] R147 1 R217 1
 phi[7] R49 1 R119 1
 phi[7] R140 -1
 phi[8] R190 1 R64 1
 phi[8] R134 1 R162 1
 phi[8] R36 1 R232 -1
 phi[8] R176 1 R204 1
 phi[8] R154 -1 R106 1
 phi[8] R153 -1 R152 -1
 phi[8] R50 1 R78 1
 phi[8] R218 1 R151 -1
 phi[8] R150 -1 R149 -1
 phi[8] R147 -1 R146 -1
 phi[8] R145 -1 R144 -1
 phi[8] R120 1 R143 -1
 phi[8] R142 -1 R141 -1
 phi[8] R92 1
 phi[9] R168 -1 R191 1
 phi[9] R167 -1 R166 -1
 phi[9] R165 -1 R164 -1
 phi[9] R65 1 R135 1
 phi[9] R162 -1 R161 -1
 phi[9] R160 -1 R159 -1
 phi[9] R158 -1 R37 1
 phi[9] R233 -1 R177 1
 phi[9] R205 1 R157 -1
 phi[9] R156 -1 R155 -1
 phi[9] R107 1 R51 1
 phi[9] R79 1 R219 1
 phi[9] R149 1 R121 1
 phi[9] R93 1
 phi[10] R169 -1 R192 1
 phi[10] R164 1 R66 1
 phi[10] R136 1 R206 1
 phi[10] R182 -1 R38 1
 phi[10] R181 -1 R234 -1
 phi[10] R180 -1 R179 -1
 phi[10] R177 -1 R176 -1
 phi[10] R80 1 R108 1
 phi[10] R52 1 R220 1
 phi[10] R122 1 R175 -1
 phi[10] R174 -1 R150 1
 phi[10] R173 -1 R172 -1
 phi[10] R171 -1 R170 -1
 phi[10] R94 1
 phi[11] R192 -1 R191 -1
 phi[11] R190 -1 R189 -1
 phi[11] R165 1 R188 -1
 phi[11] R187 -1 R67 1
 phi[11] R186 -1 R185 -1
 phi[11] R137 1 R184 -1
 phi[11] R207 1 R183 -1
 phi[11] R39 1 R235 -1
 phi[11] R179 1 R81 1
 phi[11] R109 1 R53 1
 phi[11] R221 1 R123 1
 phi[11] R151 1 R196 -1
 phi[11] R195 -1 R194 -1
 phi[11] R95 1
 phi[12] R166 1 R210 -1
 phi[12] R138 1 R209 -1
 phi[12] R40 1 R207 -1
 phi[12] R206 -1 R110 1
 phi[12] R236 -1 R180 1
 phi[12] R82 1 R205 -1
 phi[12] R204 -1 R54 1
 phi[12] R203 -1 R202 -1
 phi[12] R201 -1 R200 -1
 phi[12] R152 1 R222 1
 phi[12] R124 1 R199 -1
 phi[12] R198 -1 R197 -1
 phi[12] R194 1 R96 1
 phi[12] R68 1
 phi[13] R167 1 R211 -1
 phi[13] R139 1 R209 1
 phi[13] R41 1 R237 -1
 phi[13] R111 1 R181 1
 phi[13] R83 1 R224 -1
 phi[13] R55 1 R153 1
 phi[13] R222 -1 R221 -1
 phi[13] R125 1 R220 -1
 phi[13] R219 -1 R218 -1
 phi[13] R195 1 R217 -1
 phi[13] R97 1 R216 -1
 phi[13] R215 -1 R214 -1
 phi[13] R213 -1 R69 1
 phi[13] R212 -1
 phi[14] R168 1 R210 1
 phi[14] R42 1 R182 1
 phi[14] R112 1 R56 1
 phi[14] R84 1 R224 1
 phi[14] R154 1 R126 1
 phi[14] R98 1 R196 1
 phi[14] R70 1 R140 1
 w[0] R0000000 1
 w[1] R0000000 1 R225 1
 w[2] R0000000 1 R226 1
 w[3] R0000000 1 R227 1
 w[4] R0000000 1 R228 1
 w[5] R0000000 1 R229 1
 w[6] R0000000 1 R230 1
 w[7] R0000000 1 R231 1
 w[8] R0000000 1 R232 1
 w[9] R0000000 1 R233 1
 w[10] R0000000 1 R234 1
 w[11] R0000000 1 R235 1
 w[12] R0000000 1 R236 1
 w[13] R0000000 1 R237 1
 w[14] R1 0 $ empty column
RHS
 RHS1 R1 1 R2 1
 RHS1 R3 1 R4 1
 RHS1 R5 1 R6 1
 RHS1 R7 1 R8 1
 RHS1 R9 1 R10 1
 RHS1 R11 1 R12 1
 RHS1 R13 1 R14 1
 RHS1 R15 1 R16 1
 RHS1 R17 1 R18 1
 RHS1 R19 1 R20 1
 RHS1 R21 1 R22 1
 RHS1 R23 1 R24 1
 RHS1 R25 1 R26 1
 RHS1 R27 1 R28 1
 RHS1 R29 -7529 R30 -7529
 RHS1 R31 -7529 R32 -7529
 RHS1 R33 -7529 R34 -7529
 RHS1 R35 -7529 R36 -7529
 RHS1 R37 -7529 R38 -7529
 RHS1 R39 -7529 R40 -7529
 RHS1 R41 -7529 R42 -7529
 RHS1 R43 -7529 R44 -7529
 RHS1 R45 -7529 R46 -7529
 RHS1 R47 -7529 R48 -7529
 RHS1 R49 -7529 R50 -7529
 RHS1 R51 -7529 R52 -7529
 RHS1 R53 -7529 R54 -7529
 RHS1 R55 -7529 R56 -7529
 RHS1 R57 -7529 R58 -7529
 RHS1 R59 -7529 R60 -7529
 RHS1 R61 -7529 R62 -7529
 RHS1 R63 -7529 R64 -7529
 RHS1 R65 -7529 R66 -7529
 RHS1 R67 -7529 R68 -7529
 RHS1 R69 -7529 R70 -7529
 RHS1 R71 -7529 R72 -7529
 RHS1 R73 -7529 R74 -7529
 RHS1 R75 -7529 R76 -7529
 RHS1 R77 -7529 R78 -7529
 RHS1 R79 -7529 R80 -7529
 RHS1 R81 -7529 R82 -7529
 RHS1 R83 -7529 R84 -7529
 RHS1 R85 -7529 R86 -7529
 RHS1 R87 -7529 R88 -7529
 RHS1 R89 -7529 R90 -7529
 RHS1 R91 -7529 R92 -7529
 RHS1 R93 -7529 R94 -7529
 RHS1 R95 -7529 R96 -7529
 RHS1 R97 -7529 R98 -7529
 RHS1 R99 -7529 R100 -7529
 RHS1 R101 -7529 R102 -7529
 RHS1 R103 -7529 R104 -7529
 RHS1 R105 -7529 R106 -7529
 RHS1 R107 -7529 R108 -7529
 RHS1 R109 -7529 R110 -7529
 RHS1 R111 -7529 R112 -7529
 RHS1 R113 -7529 R114 -7529
 RHS1 R115 -7529 R116 -7529
 RHS1 R117 -7529 R118 -7529
 RHS1 R119 -7529 R120 -7529
 RHS1 R121 -7529 R122 -7529
 RHS1 R123 -7529 R124 -7529
 RHS1 R125 -7529 R126 -7529
 RHS1 R127 -7529 R128 -7529
 RHS1 R129 -7529 R130 -7529
 RHS1 R131 -7529 R132 -7529
 RHS1 R133 -7529 R134 -7529
 RHS1 R135 -7529 R136 -7529
 RHS1 R137 -7529 R138 -7529
 RHS1 R139 -7529 R140 -7529
 RHS1 R141 -7529 R142 -7529
 RHS1 R143 -7529 R144 -7529
 RHS1 R145 -7529 R146 -7529
 RHS1 R147 -7529 R148 -7529
 RHS1 R149 -7529 R150 -7529
 RHS1 R151 -7529 R152 -7529
 RHS1 R153 -7529 R154 -7529
 RHS1 R155 -7529 R156 -7529
 RHS1 R157 -7529 R158 -7529
 RHS1 R159 -7529 R160 -7529
 RHS1 R161 -7529 R162 -7529
 RHS1 R163 -7529 R164 -7529
 RHS1 R165 -7529 R166 -7529
 RHS1 R167 -7529 R168 -7529
 RHS1 R169 -7529 R170 -7529
 RHS1 R171 -7529 R172 -7529
 RHS1 R173 -7529 R174 -7529
 RHS1 R175 -7529 R176 -7529
 RHS1 R177 -7529 R178 -7529
 RHS1 R179 -7529 R180 -7529
 RHS1 R181 -7529 R182 -7529
 RHS1 R183 -7529 R184 -7529
 RHS1 R185 -7529 R186 -7529
 RHS1 R187 -7529 R188 -7529
 RHS1 R189 -7529 R190 -7529
 RHS1 R191 -7529 R192 -7529
 RHS1 R193 -7529 R194 -7529
 RHS1 R195 -7529 R196 -7529
 RHS1 R197 -7529 R198 -7529
 RHS1 R199 -7529 R200 -7529
 RHS1 R201 -7529 R202 -7529
 RHS1 R203 -7529 R204 -7529
 RHS1 R205 -7529 R206 -7529
 RHS1 R207 -7529 R208 -7529
 RHS1 R209 -7529 R210 -7529
 RHS1 R211 -7529 R212 -7529
 RHS1 R213 -7529 R214 -7529
 RHS1 R215 -7529 R216 -7529
 RHS1 R217 -7529 R218 -7529
 RHS1 R219 -7529 R220 -7529
 RHS1 R221 -7529 R222 -7529
 RHS1 R223 -7529 R224 -7529
 RHS1 R225 -871 R226 -824
 RHS1 R227 -295 R228 -712
 RHS1 R229 -533 R230 -924
 RHS1 R231 -770 R232 -18
 RHS1 R233 -151 R234 -1085
 RHS1 R235 -103 R236 -406
 RHS1 R237 -827
BOUNDS
 UP BND1 x[0,0] 1
 UP BND1 x[0,1] 1
 UP BND1 x[0,2] 1
 UP BND1 x[0,3] 1
 UP BND1 x[0,4] 1
 UP BND1 x[0,5] 1
 UP BND1 x[0,6] 1
 UP BND1 x[0,7] 1
 UP BND1 x[0,8] 1
 UP BND1 x[0,9] 1
 UP BND1 x[0,10] 1
 UP BND1 x[0,11] 1
 UP BND1 x[0,12] 1
 UP BND1 x[0,13] 1
 UP BND1 x[0,14] 1
 UP BND1 x[1,0] 1
 UP BND1 x[1,1] 1
 UP BND1 x[1,2] 1
 UP BND1 x[1,3] 1
 UP BND1 x[1,4] 1
 UP BND1 x[1,5] 1
 UP BND1 x[1,6] 1
 UP BND1 x[1,7] 1
 UP BND1 x[1,8] 1
 UP BND1 x[1,9] 1
 UP BND1 x[1,10] 1
 UP BND1 x[1,11] 1
 UP BND1 x[1,12] 1
 UP BND1 x[1,13] 1
 UP BND1 x[1,14] 1
 UP BND1 x[2,0] 1
 UP BND1 x[2,1] 1
 UP BND1 x[2,2] 1
 UP BND1 x[2,3] 1
 UP BND1 x[2,4] 1
 UP BND1 x[2,5] 1
 UP BND1 x[2,6] 1
 UP BND1 x[2,7] 1
 UP BND1 x[2,8] 1
 UP BND1 x[2,9] 1
 UP BND1 x[2,10] 1
 UP BND1 x[2,11] 1
 UP BND1 x[2,12] 1
 UP BND1 x[2,13] 1
 UP BND1 x[2,14] 1
 UP BND1 x[3,0] 1
 UP BND1 x[3,1] 1
 UP BND1 x[3,2] 1
 UP BND1 x[3,3] 1
 UP BND1 x[3,4] 1
 UP BND1 x[3,5] 1
 UP BND1 x[3,6] 1
 UP BND1 x[3,7] 1
 UP BND1 x[3,8] 1
 UP BND1 x[3,9] 1
 UP BND1 x[3,10] 1
 UP BND1 x[3,11] 1
 UP BND1 x[3,12] 1
 UP BND1 x[3,13] 1
 UP BND1 x[3,14] 1
 UP BND1 x[4,0] 1
 UP BND1 x[4,1] 1
 UP BND1 x[4,2] 1
 UP BND1 x[4,3] 1
 UP BND1 x[4,4] 1
 UP BND1 x[4,5] 1
 UP BND1 x[4,6] 1
 UP BND1 x[4,7] 1
 UP BND1 x[4,8] 1
 UP BND1 x[4,9] 1
 UP BND1 x[4,10] 1
 UP BND1 x[4,11] 1
 UP BND1 x[4,12] 1
 UP BND1 x[4,13] 1
 UP BND1 x[4,14] 1
 UP BND1 x[5,0] 1
 UP BND1 x[5,1] 1
 UP BND1 x[5,2] 1
 UP BND1 x[5,3] 1
 UP BND1 x[5,4] 1
 UP BND1 x[5,5] 1
 UP BND1 x[5,6] 1
 UP BND1 x[5,7] 1
 UP BND1 x[5,8] 1
 UP BND1 x[5,9] 1
 UP BND1 x[5,10] 1
 UP BND1 x[5,11] 1
 UP BND1 x[5,12] 1
 UP BND1 x[5,13] 1
 UP BND1 x[5,14] 1
 UP BND1 x[6,0] 1
 UP BND1 x[6,1] 1
 UP BND1 x[6,2] 1
 UP BND1 x[6,3] 1
 UP BND1 x[6,4] 1
 UP BND1 x[6,5] 1
 UP BND1 x[6,6] 1
 UP BND1 x[6,7] 1
 UP BND1 x[6,8] 1
 UP BND1 x[6,9] 1
 UP BND1 x[6,10] 1
 UP BND1 x[6,11] 1
 UP BND1 x[6,12] 1
 UP BND1 x[6,13] 1
 UP BND1 x[6,14] 1
 UP BND1 x[7,0] 1
 UP BND1 x[7,1] 1
 UP BND1 x[7,2] 1
 UP BND1 x[7,3] 1
 UP BND1 x[7,4] 1
 UP BND1 x[7,5] 1
 UP BND1 x[7,6] 1
 UP BND1 x[7,7] 1
 UP BND1 x[7,8] 1
 UP BND1 x[7,9] 1
 UP BND1 x[7,10] 1
 UP BND1 x[7,11] 1
 UP BND1 x[7,12] 1
 UP BND1 x[7,13] 1
 UP BND1 x[7,14] 1
 UP BND1 x[8,0] 1
 UP BND1 x[8,1] 1
 UP BND1 x[8,2] 1
 UP BND1 x[8,3] 1
 UP BND1 x[8,4] 1
 UP BND1 x[8,5] 1
 UP BND1 x[8,6] 1
 UP BND1 x[8,7] 1
 UP BND1 x[8,8] 1
 UP BND1 x[8,9] 1
 UP BND1 x[8,10] 1
 UP BND1 x[8,11] 1
 UP BND1 x[8,12] 1
 UP BND1 x[8,13] 1
 UP BND1 x[8,14] 1
 UP BND1 x[9,0] 1
 UP BND1 x[9,1] 1
 UP BND1 x[9,2] 1
 UP BND1 x[9,3] 1
 UP BND1 x[9,4] 1
 UP BND1 x[9,5] 1
 UP BND1 x[9,6] 1
 UP BND1 x[9,7] 1
 UP BND1 x[9,8] 1
 UP BND1 x[9,9] 1
 UP BND1 x[9,10] 1
 UP BND1 x[9,11] 1
 UP BND1 x[9,12] 1
 UP BND1 x[9,13] 1
 UP BND1 x[9,14] 1
 UP BND1 x[10,0] 1
 UP BND1 x[10,1] 1
 UP BND1 x[10,2] 1
 UP BND1 x[10,3] 1
 UP BND1 x[10,4] 1
 UP BND1 x[10,5] 1
 UP BND1 x[10,6] 1
 UP BND1 x[10,7] 1
 UP BND1 x[10,8] 1
 UP BND1 x[10,9] 1
 UP BND1 x[10,10] 1
 UP BND1 x[10,11] 1
 UP BND1 x[10,12] 1
 UP BND1 x[10,13] 1
 UP BND1 x[10,14] 1
 UP BND1 x[11,0] 1
 UP BND1 x[11,1] 1
 UP BND1 x[11,2] 1
 UP BND1 x[11,3] 1
 UP BND1 x[11,4] 1
 UP BND1 x[11,5] 1
 UP BND1 x[11,6] 1
 UP BND1 x[11,7] 1
 UP BND1 x[11,8] 1
 UP BND1 x[11,9] 1
 UP BND1 x[11,10] 1
 UP BND1 x[11,11] 1
 UP BND1 x[11,12] 1
 UP BND1 x[11,13] 1
 UP BND1 x[11,14] 1
 UP BND1 x[12,0] 1
 UP BND1 x[12,1] 1
 UP BND1 x[12,2] 1
 UP BND1 x[12,3] 1
 UP BND1 x[12,4] 1
 UP BND1 x[12,5] 1
 UP BND1 x[12,6] 1
 UP BND1 x[12,7] 1
 UP BND1 x[12,8] 1
 UP BND1 x[12,9] 1
 UP BND1 x[12,10] 1
 UP BND1 x[12,11] 1
 UP BND1 x[12,12] 1
 UP BND1 x[12,13] 1
 UP BND1 x[12,14] 1
 UP BND1 x[13,0] 1
 UP BND1 x[13,1] 1
 UP BND1 x[13,2] 1
 UP BND1 x[13,3] 1
 UP BND1 x[13,4] 1
 UP BND1 x[13,5] 1
 UP BND1 x[13,6] 1
 UP BND1 x[13,7] 1
 UP BND1 x[13,8] 1
 UP BND1 x[13,9] 1
 UP BND1 x[13,10] 1
 UP BND1 x[13,11] 1
 UP BND1 x[13,12] 1
 UP BND1 x[13,13] 1
 UP BND1 x[13,14] 1
 UP BND1 x[14,0] 1
 UP BND1 x[14,1] 1
 UP BND1 x[14,2] 1
 UP BND1 x[14,3] 1
 UP BND1 x[14,4] 1
 UP BND1 x[14,5] 1
 UP BND1 x[14,6] 1
 UP BND1 x[14,7] 1
 UP BND1 x[14,8] 1
 UP BND1 x[14,9] 1
 UP BND1 x[14,10] 1
 UP BND1 x[14,11] 1
 UP BND1 x[14,12] 1
 UP BND1 x[14,13] 1
 UP BND1 x[14,14] 1
ENDATA
